\ Model MILP_P2P
\ LP format - for model browsing. Use MPS format to capture full model detail.
Maximize
  402.48 x(0,1) + 576.18 x(0,2) + 402.48 x(1,0) + 630 x(1,2) + 576.18 x(2,0)
   + 630 x(2,1) - 32198.4 z(0,1) - 46094.4 z(0,2) - 32198.4 z(1,0)
   - 50400 z(1,2) - 46094.4 z(2,0) - 50400 z(2,1)
Subject To
 Demand(0,0): x(0,0) <= 0
 Demand(0,1): x(0,1) <= 1000
 Demand(0,2): x(0,2) <= 200
 Demand(1,0): x(1,0) <= 1000
 Demand(1,1): x(1,1) <= 0
 Demand(1,2): x(1,2) <= 300
 Demand(2,0): x(2,0) <= 200
 Demand(2,1): x(2,1) <= 300
 Demand(2,2): x(2,2) <= 0
 Capacity(0,0): x(0,0) - 90 z(0,0) <= 0
 Capacity(0,1): x(0,1) - 90 z(0,1) <= 0
 Capacity(0,2): x(0,2) - 90 z(0,2) <= 0
 Capacity(1,0): x(1,0) - 90 z(1,0) <= 0
 Capacity(1,1): x(1,1) - 90 z(1,1) <= 0
 Capacity(1,2): x(1,2) - 90 z(1,2) <= 0
 Capacity(2,0): x(2,0) - 90 z(2,0) <= 0
 Capacity(2,1): x(2,1) - 90 z(2,1) <= 0
 Capacity(2,2): x(2,2) - 90 z(2,2) <= 0
 Continuity(0): z(0,1) + z(0,2) - z(1,0) - z(2,0) = 0
 Continuity(1): - z(0,1) + z(1,0) + z(1,2) - z(2,1) = 0
 Continuity(2): - z(0,2) - z(1,2) + z(2,0) + z(2,1) = 0
 Productivity: 0.3333333333333333 z(0,0) + 2.903448275862069 z(0,1)
   + 4.012643678160919 z(0,2) + 2.903448275862069 z(1,0)
   + 0.3333333333333333 z(1,1) + 4.35632183908046 z(1,2)
   + 4.012643678160919 z(2,0) + 4.35632183908046 z(2,1)
   + 0.3333333333333333 z(2,2) <= 140
Bounds
Generals
 x(0,0) x(0,1) x(0,2) x(1,0) x(1,1) x(1,2) x(2,0) x(2,1) x(2,2) z(0,0)
 z(0,1) z(0,2) z(1,0) z(1,1) z(1,2) z(2,0) z(2,1) z(2,2)
End
